c 214_4_checker_5cl.cnf
c
c field = 214
c formula set type = 4_checker_5cl
c
p cnf 5 6
420 
422 
424 
428 
-430 
421 
423 
425 
429 
-431 
306 
336 
366 
396 
-276 
307 
337 
367 
397 
-277 
314 
342 
370 
398 
-286 
315 
343 
371 
399 
-287 
